960181
960181
960181
943656
943656
943656
942790
936007
936007
932242
904492
904492
904492
904492
904492
891278
890153
890153
885649
885649
885649
885649
865473
864315
864315
852376
852376
845963
845963
845963
845963
845963
838064
838064
838064
838064
838064
838064
813879
813879
813879
813879
813879
813879
784923
784923
784923
784923
784923
784923
776302
776302
776302
776302
772995
772995
772995
772995
772995
772995
769168
769168
769168
768383
768383
768383
756706
756706
756706
756706
756706
733812
733812
733812
733812
733812
733812
733812
733812
733812
725263
725263
725263
725263
725263
725263
725263
725263
725263
725263
725263
725263
725263
725263
721933
721933
721933
721933
721933
721933
